Route 1: 125 105 76 39 135 95 20 153 113 56 94 3 144
Route 2: 72 70 59 27 85 17
Route 3: 7 8
Route 4: 12 31
Route 5: 78 128 5 73 104 53 55 38 139 69
Route 6: 9
Route 7: 43 54 58 65 83 18 116 37
Route 8: 117 127 141 120 92 71 101 138 23 97 60 123 52 133 57 44 152 98
Route 9: 22
Route 10: 109 47 134 32 4 119 74
Route 11: 11 13 122
Route 12: 84 131 147 64 21 129 34 91 46 118
Route 13: 26 96
Route 14: 49 99 149 51 86 77 115 19 82 136 45 143
Route 15: 75 89 106 50 111 146 114 124 137 110 29 41 90 67 40 48
Route 16: 140 10 30
Route 17: 35 14 28 63 102 79 121 108
Route 18: 148 66 132 112 16 150 88 103
Route 19: 24 145
Route 20: 42 2 15
Route 21: 25 130
Route 22: 61 87 93 100 142 6 126 107 151 68 36 33 80 81 62
Cost 21178.91
